************************************************************************
file with basedata            : mm48_.bas
initial value random generator: 969271343
************************************************************************
projects                      :  1
jobs (incl. supersource/sink ):  12
horizon                       :  78
RESOURCES
  - renewable                 :  2   R
  - nonrenewable              :  2   N
  - doubly constrained        :  0   D
************************************************************************
PROJECT INFORMATION:
pronr.  #jobs rel.date duedate tardcost  MPM-Time
    1     10      0       13        4       13
************************************************************************
PRECEDENCE RELATIONS:
jobnr.    #modes  #successors   successors
   1        1          3           2   3   4
   2        3          1          10
   3        3          2           6   7
   4        3          3           5   8  10
   5        3          1           7
   6        3          1           9
   7        3          2           9  11
   8        3          2           9  11
   9        3          1          12
  10        3          1          12
  11        3          1          12
  12        1          0        
************************************************************************
REQUESTS/DURATIONS:
jobnr. mode duration  R 1  R 2  N 1  N 2
------------------------------------------------------------------------
  1      1     0       0    0    0    0
  2      1     6       4    9    9    4
         2     6       6    6   10    4
         3     9       2    4    9    4
  3      1     1       5    4    3    4
         2     1       5    3    3    5
         3     6       5    3    2    2
  4      1     3       8    3    5    8
         2     8       5    3    5    8
         3     9       4    2    4    8
  5      1     2       7    6    8    6
         2     3       5    4    6    4
         3     4       3    1    5    4
  6      1     4       4    8    2    9
         2     9       4    7    2    9
         3    10       3    7    2    9
  7      1     2       2    5    8    7
         2     4       2    5    7    6
         3     9       1    3    7    6
  8      1     6       6    9    7    9
         2     7       6    8    5    6
         3    10       6    8    3    5
  9      1     2       8    8    7    5
         2     4       7    7    5    5
         3     6       7    4    3    2
 10      1     1       7    9    4    2
         2     5       4    5    3    2
         3     5       2    6    3    2
 11      1     4       7    3   10    9
         2    10       5    2   10    9
         3    10       7    2    9    8
 12      1     0       0    0    0    0
************************************************************************
RESOURCEAVAILABILITIES:
  R 1  R 2  N 1  N 2
   15   20   64   64
************************************************************************
MAXIMAL LAGS:
from  to  type  delay
    1   12   ES      0
    1    2   ES      0
    2   12   ES      0
    1    3   ES      0
    3   12   ES      0
    1    4   ES      0
    4   12   ES      0
    1    5   ES      0
    5   12   ES      0
    1    6   ES      0
    6   12   ES      0
    1    7   ES      0
    7   12   ES      0
    1    8   ES      0
    8   12   ES      0
    1    9   ES      0
    9   12   ES      0
    1   10   ES      0
   10   12   ES      0
    1   11   ES      0
   11   12   ES      0
    1   12   ES      0
    2   10   SS      2
    2   10   SE      7
    2   10   ES      2
    2   10   EE      6
    3    6   SS      6
    3    6   SE     10
    3    6   ES      1
    3    6   EE     11
    3    7   SS      0
    3    7   SE      3
    3    7   ES     -5
    3    7   EE     -4
    4    5   SS     11
    4    5   SE     -1
    4    5   ES      7
    4    5   EE     -2
    4    8   SS      3
    4    8   SE      9
    8    4   SE      0
    4    8   ES      0
    4    8   EE     -3
    4   10   SS    -11
    4   10   SE     -5
    4   10   ES     12
    4   10   EE      4
    5    7   SS     -9
    5    7   SE      1
    5    7   ES      1
    5    7   EE     12
    6    9   SS     -4
    6    9   SE      6
    6    9   ES      0
    6    9   EE      6
    7    9   SS    -12
    7    9   SE     -7
    7    9   ES      4
    7    9   EE     -7
    7   11   SS     -3
    7   11   SE      7
    7   11   ES     10
    7   11   EE      4
    8    9   SS     -6
    8    9   SE      6
    8    9   ES     12
    8    9   EE     -8
    8   11   SS     -8
    8   11   SE      9
    8   11   ES     -2
    8   11   EE    -11
************************************************************************
